Route #1: 1 2 9 10 14 11 8 6 4 3 1 
Route #2: 1 1 5 7 12 21 1 
Route #3: 1 16 17 20 18 1 
Route #4: 1 15 19 13 1 

Cost 691.045
Time 0.0802


 * Another infos *

 Iterations: 22 Time: 0.0802 sec - 0.0013 min - 0.0000 horas
0.0000 h 0.0013 min
Problem dimension: 22
